SDVRP instances/custom_instances/p02_22_split0.vrp
NAME:p02_22_split
BEST_KNOWN: 0
COMMENT: 0
DIMENSION: 377
CAPACITY: 140
EDGE_WEIGHT_FORMAT: FUNCTION
EDGE_WEIGHT_TYPE: EXACT_2D
NODE_COORD_SECTION
1 0.00000 0.00000
2 41 -35
3 41 -35
4 41 -35
5 41 -35
6 41 -35
7 41 -35
8 20 -37
9 20 -37
10 20 -37
11 -28 8
12 -28 8
13 -28 8
14 -28 8
15 -28 8
16 -28 8
17 33 14
18 33 14
19 33 14
20 33 14
21 33 14
22 33 14
23 28 9
24 28 9
25 28 9
26 28 9
27 15 16
28 15 16
29 15 16
30 15 16
31 15 16
32 15 16
33 15 16
34 -28 35
35 -28 35
36 -28 35
37 -28 35
38 -28 35
39 -28 35
40 -26 20
41 -26 20
42 -26 20
43 -26 20
44 -35 21
45 -35 21
46 -34 -45
47 -34 -45
48 -34 -45
49 18 44
50 18 44
51 18 44
52 18 44
53 11 -33
54 11 -33
55 11 -33
56 -41 48
57 -41 48
58 -41 48
59 -41 48
60 -41 48
61 -38 21
62 -38 21
63 -38 21
64 9 -38
65 9 -38
66 9 -38
67 9 -38
68 9 -38
69 9 -38
70 21 -16
71 21 -16
72 21 -16
73 21 -16
74 -1 1
75 -1 1
76 -1 1
77 -1 1
78 -1 1
79 -1 1
80 -1 1
81 -15 -41
82 -15 -41
83 -15 -41
84 -15 -41
85 -15 -41
86 -15 -41
87 -15 -41
88 -15 -41
89 7 -12
90 7 -12
91 7 -12
92 -6 -20
93 -6 -20
94 -6 -20
95 -6 -20
96 -6 -20
97 -6 -20
98 -19 -50
99 -19 -50
100 -19 -50
101 -19 -50
102 -19 -50
103 -19 -50
104 -19 -50
105 -19 -50
106 14 42
107 14 42
108 14 42
109 14 42
110 14 42
111 14 42
112 -15 -11
113 -15 -11
114 -15 -11
115 -15 -11
116 -15 -11
117 -15 -11
118 -15 -11
119 42 -12
120 42 -12
121 42 -12
122 42 -12
123 42 -12
124 39 41
125 39 41
126 14 -44
127 14 -44
128 14 -44
129 14 -44
130 14 -44
131 -29 28
132 -29 28
133 11 47
134 11 47
135 11 47
136 11 47
137 11 47
138 11 47
139 -40 -40
140 -40 -40
141 -40 -40
142 -40 -40
143 -40 -40
144 -40 -40
145 -40 -40
146 22 -25
147 22 -25
148 22 -25
149 22 -25
150 22 -25
151 22 -25
152 -41 32
153 48 8
154 48 8
155 48 8
156 40 4
157 40 4
158 40 4
159 40 4
160 40 4
161 7 -19
162 7 -19
163 7 -19
164 7 -19
165 7 -19
166 32 46
167 32 46
168 -39 13
169 -39 13
170 -39 13
171 -39 13
172 -39 13
173 -39 13
174 -39 13
175 -29 0
176 -29 0
177 -29 0
178 -29 0
179 -29 0
180 -29 0
181 29 -17
182 29 -17
183 29 -17
184 29 -17
185 21 -30
186 21 -30
187 6 -46
188 6 -46
189 6 -46
190 6 -46
191 6 -46
192 6 -46
193 6 -46
194 -6 37
195 -6 37
196 -6 37
197 -6 37
198 -6 37
199 -6 37
200 22 48
201 22 48
202 22 48
203 22 48
204 22 48
205 22 48
206 -42 -1
207 -42 -1
208 -42 -1
209 -42 -1
210 -42 -1
211 44 -34
212 44 -34
213 44 -34
214 44 -34
215 -17 49
216 -17 49
217 -17 49
218 -17 49
219 -17 49
220 37 37
221 37 37
222 37 37
223 -44 -2
224 -44 -2
225 -44 -2
226 -44 -2
227 -44 -2
228 -44 -2
229 -44 -2
230 0 32
231 0 32
232 38 25
233 38 25
234 38 25
235 38 25
236 38 25
237 38 25
238 38 25
239 38 25
240 3 11
241 3 11
242 3 11
243 3 11
244 -36 39
245 -36 39
246 -36 39
247 -36 39
248 -9 3
249 -9 3
250 -9 3
251 -9 3
252 -9 3
253 -9 3
254 -9 3
255 -9 3
256 -30 -44
257 -30 -44
258 -30 -44
259 -30 -44
260 -30 -44
261 -30 -44
262 -30 -44
263 -7 46
264 -7 46
265 -7 46
266 -7 46
267 -7 46
268 -7 46
269 -7 46
270 -7 46
271 -7 46
272 -40 -17
273 -40 -17
274 -40 -17
275 -23 3
276 -23 3
277 -23 3
278 -23 3
279 -23 3
280 -23 3
281 -23 3
282 -23 3
283 -7 28
284 -7 28
285 -7 28
286 -7 28
287 -7 28
288 8 -50
289 8 -50
290 8 -50
291 8 -50
292 8 -50
293 10 -8
294 10 -8
295 10 -8
296 10 -8
297 10 -8
298 10 -8
299 39 -33
300 39 -33
301 39 -33
302 39 -33
303 39 -33
304 -19 -33
305 -19 -33
306 -19 -33
307 -19 -33
308 -19 -33
309 -19 -33
310 -19 -33
311 -19 -33
312 -15 -31
313 -15 -31
314 -15 -31
315 -15 -31
316 -15 -31
317 -15 -31
318 -15 -31
319 -15 -31
320 -4 7
321 -4 7
322 -4 7
323 -4 7
324 -4 7
325 -4 7
326 -4 7
327 1 32
328 1 32
329 1 32
330 1 32
331 8 5
332 8 5
333 -38 43
334 -38 43
335 -38 43
336 -38 43
337 -40 -30
338 -40 -30
339 -40 -30
340 -40 -30
341 -40 -30
342 10 19
343 10 19
344 10 19
345 10 19
346 10 19
347 10 19
348 10 19
349 -19 2
350 -19 2
351 -19 2
352 47 31
353 47 31
354 47 31
355 47 31
356 -3 27
357 -3 27
358 -3 27
359 -3 27
360 -3 27
361 -3 27
362 -3 27
363 -3 27
364 -39 -2
365 -39 -2
366 -39 -2
367 -39 -2
368 -45 18
369 -45 18
370 -45 18
371 13 10
372 -7 43
373 -7 43
374 -7 43
375 -7 43
376 -7 43
377 -7 43
DEMAND_SECTION
1 0
2 14
3 7
4 1
5 1
6 1
7 1
8 28
9 14
10 7
11 14
12 7
13 1
14 1
15 1
16 1
17 28
18 28
19 1
20 1
21 1
22 1
23 14
24 7
25 1
26 1
27 28
28 14
29 7
30 1
31 1
32 1
33 1
34 28
35 14
36 7
37 1
38 1
39 1
40 28
41 1
42 1
43 1
44 28
45 7
46 28
47 28
48 1
49 28
50 1
51 1
52 1
53 14
54 7
55 1
56 28
57 28
58 1
59 1
60 1
61 28
62 28
63 1
64 28
65 28
66 1
67 1
68 1
69 1
70 28
71 28
72 1
73 1
74 14
75 7
76 1
77 1
78 1
79 1
80 1
81 28
82 28
83 7
84 1
85 1
86 1
87 1
88 1
89 14
90 7
91 1
92 28
93 28
94 7
95 1
96 1
97 1
98 28
99 28
100 1
101 1
102 1
103 1
104 1
105 1
106 28
107 1
108 1
109 1
110 1
111 1
112 14
113 7
114 1
115 1
116 1
117 1
118 1
119 28
120 7
121 1
122 1
123 1
124 28
125 7
126 28
127 28
128 7
129 1
130 1
131 28
132 28
133 28
134 7
135 1
136 1
137 1
138 1
139 28
140 1
141 1
142 1
143 1
144 1
145 1
146 14
147 7
148 1
149 1
150 1
151 1
152 28
153 28
154 28
155 14
156 14
157 1
158 1
159 1
160 1
161 28
162 1
163 1
164 1
165 1
166 28
167 1
168 28
169 1
170 1
171 1
172 1
173 1
174 1
175 28
176 7
177 1
178 1
179 1
180 1
181 28
182 1
183 1
184 1
185 28
186 28
187 28
188 1
189 1
190 1
191 1
192 1
193 1
194 14
195 7
196 1
197 1
198 1
199 1
200 14
201 7
202 1
203 1
204 1
205 1
206 28
207 14
208 1
209 1
210 1
211 28
212 28
213 1
214 1
215 28
216 28
217 7
218 1
219 1
220 28
221 14
222 7
223 28
224 28
225 7
226 1
227 1
228 1
229 1
230 14
231 7
232 28
233 14
234 1
235 1
236 1
237 1
238 1
239 1
240 14
241 1
242 1
243 1
244 14
245 7
246 1
247 1
248 28
249 14
250 7
251 1
252 1
253 1
254 1
255 1
256 28
257 28
258 7
259 1
260 1
261 1
262 1
263 28
264 28
265 7
266 1
267 1
268 1
269 1
270 1
271 1
272 28
273 28
274 1
275 28
276 14
277 1
278 1
279 1
280 1
281 1
282 1
283 14
284 1
285 1
286 1
287 1
288 28
289 7
290 1
291 1
292 1
293 28
294 28
295 1
296 1
297 1
298 1
299 28
300 28
301 1
302 1
303 1
304 28
305 28
306 1
307 1
308 1
309 1
310 1
311 1
312 28
313 28
314 1
315 1
316 1
317 1
318 1
319 1
320 14
321 7
322 1
323 1
324 1
325 1
326 1
327 28
328 28
329 1
330 1
331 28
332 7
333 28
334 14
335 1
336 1
337 28
338 1
339 1
340 1
341 1
342 14
343 7
344 1
345 1
346 1
347 1
348 1
349 28
350 28
351 14
352 28
353 14
354 7
355 1
356 28
357 14
358 7
359 1
360 1
361 1
362 1
363 1
364 14
365 7
366 1
367 1
368 28
369 14
370 7
371 28
372 28
373 7
374 1
375 1
376 1
377 1
DEPOT_SECTION
1
-1
EOF