SDVRP instances/custom_instances/p02_22_split0.sol
376 -4 5 2 6 3 1 210 212 211 213 121 120 118 122 119 -7 9 8 299 301 298 300 302 182 180 181 183 -13 10 11 367 368 369 172 171 173 170 167 168 169 175 174 -20 17 21 18 352 354 353 351 237 236 235 234 231 232 238 233 -22 25 23 24 19 16 153 152 154 159 155 156 158 157 -38 33 35 37 36 34 151 130 131 78 76 -42 40 41 39 43 44 62 61 60 15 14 12 254 251 250 -46 45 47 257 256 255 259 261 260 258 307 308 309 305 306 310 315 314 318 316 -50 49 202 204 201 200 199 203 166 165 123 124 219 220 221 -53 54 52 64 63 67 92 91 96 95 -68 65 66 126 129 128 127 125 288 290 289 291 287 187 186 190 192 189 191 188 -71 69 70 72 149 146 148 145 150 147 184 185 -77 74 75 244 243 245 246 335 334 333 332 59 56 57 55 58 322 321 323 325 -79 73 324 319 320 359 361 356 357 229 230 329 328 326 327 -94 93 87 85 83 80 82 86 81 84 97 99 101 98 103 100 104 102 -107 105 110 106 108 109 132 135 137 136 133 134 48 51 343 342 346 341 345 347 344 -111 117 116 113 114 115 112 303 304 312 311 313 317 -138 143 142 144 141 140 139 337 340 339 336 338 271 273 272 -164 161 160 163 162 89 90 88 292 293 294 296 295 297 -176 177 179 178 207 209 206 208 205 224 222 227 226 225 223 228 365 364 363 366 -240 241 242 239 31 27 29 30 32 28 26 370 331 330 -247 252 282 374 376 372 371 375 373 193 195 194 197 196 198 355 358 362 360 -253 248 249 281 277 280 274 278 276 279 275 349 348 350 -264 269 262 265 268 267 263 266 270 216 214 217 215 218 286 285 284 283 0 





OBJ=
2306.719
BEST_KNOWN=
0.000